*SENSE:Maximize
NAME          MODEL
ROWS
 N  OBJ
 L  C0000000
 L  C0000001
 L  C0000002
 L  C0000003
 L  C0000004
 L  C0000005
 L  C0000006
 G  C0000007
 G  C0000008
 G  C0000009
 L  C0000010
 G  C0000011
 G  C0000012
 L  C0000013
COLUMNS
    X0000000  C0000000   4.500000000000e+03
    X0000000  C0000001   1.000000000000e+00
    X0000000  C0000004   5.000000000000e+01
    X0000000  C0000007   5.000000000000e+01
    X0000000  C0000010  -2.019000000000e+01
    X0000000  C0000011   1.000000000000e+00
    X0000000  OBJ        1.009500000000e+03
    X0000001  C0000000   1.600000000000e+03
    X0000001  C0000002   1.000000000000e+00
    X0000001  C0000005   5.000000000000e+01
    X0000001  C0000008   5.000000000000e+01
    X0000001  C0000010  -1.251200000000e+01
    X0000001  C0000012   1.000000000000e+00
    X0000001  OBJ        6.256000000000e+02
    X0000002  C0000000   2.000000000000e+03
    X0000002  C0000003   1.000000000000e+00
    X0000002  C0000006   5.000000000000e+01
    X0000002  C0000009   5.000000000000e+01
    X0000002  C0000010  -2.064000000000e+01
    X0000002  C0000013   1.000000000000e+00
    X0000002  OBJ        1.032000000000e+03
RHS
    RHS       C0000000   2.200000000000e+04
    RHS       C0000001   2.000000000000e+01
    RHS       C0000002   2.000000000000e+01
    RHS       C0000003   2.000000000000e+01
    RHS       C0000004   1.700000000000e+02
    RHS       C0000005   1.500000000000e+02
    RHS       C0000006   1.300000000000e+02
    RHS       C0000007   1.200000000000e+02
    RHS       C0000008   1.000000000000e+02
    RHS       C0000009   8.000000000000e+01
    RHS       C0000010   0.000000000000e+00
    RHS       C0000011   3.000000000000e+00
    RHS       C0000012   3.000000000000e+00
    RHS       C0000013   1.000000000000e+00
BOUNDS
ENDATA
